rehearsal = [[0,1,1,1,0,1,1,1,1,0], [0,1,1,1,0,1,1,0,1,1], [1,1,1,1,0,1,1,0,0,1], [0,0,1,0,0,0,1,1,1,1], [0,0,1,1,1,0,0,0,1,1], [1,1,0,1,1,1,0,1,1,1], [1,1,1,0,1,1,1,1,0,0], [1,0,1,0,1,1,0,1,1,0], [1,1,0,1,1,1,0,1,0,1], [0,0,1,1,1,1,0,1,0,1], [1,0,1,0,0,0,1,1,0,1], [1,0,0,1,0,1,0,1,1,0], [1,1,1,0,1,1,1,1,0,1], [1,1,1,0,0,0,1,0,0,1], [0,0,1,0,0,0,1,1,1,1], [0,1,0,1,0,1,0,0,0,1], [1,0,1,1,1,0,0,1,1,1], [1,0,1,1,0,1,0,1,1,0], [0,0,1,1,0,0,1,1,1,0], [0,1,0,1,0,1,1,1,1,0], [0,1,1,1,0,1,1,0,1,0], [1,1,0,0,0,0,0,0,0,0], [1,1,0,1,1,1,1,0,1,1], [1,1,1,1,0,0,0,1,0,0], [1,1,1,1,0,1,1,0,1,0], [0,0,1,1,0,1,1,1,0,1], [1,0,0,0,0,1,0,1,1,1], [0,1,0,1,1,1,1,1,1,1], [1,1,0,1,1,1,0,0,1,1], [1,1,1,1,1,1,0,1,0,0], [0,0,0,1,1,1,1,1,0,1], [0,0,1,0,0,0,0,0,1,1], [1,0,1,0,0,1,1,0,0,0], [0,0,1,1,1,1,1,1,0,1], [1,0,1,1,0,0,1,0,1,1], [0,1,1,0,1,0,0,1,1,1], [0,0,1,1,1,0,0,1,1,1], [0,1,1,1,1,1,0,0,1,0], [0,1,1,0,1,0,0,1,0,1], [1,0,1,0,1,0,1,1,1,0], [1,1,1,0,1,1,0,1,1,1], [0,0,1,1,1,1,1,0,0,1], [0,1,0,1,1,1,0,1,0,1], [1,0,0,0,1,1,0,1,0,0], [0,1,0,1,0,1,0,1,1,0], [1,1,0,0,1,0,1,1,0,1], [0,0,1,0,1,1,1,1,0,1], [0,1,0,1,0,1,1,0,0,1], [1,1,0,1,0,1,1,0,1,0], [0,1,1,1,1,0,0,0,0,0]];
permutations = [1,5,8,6,2,7,3,10,4,9];